15 17
14 15
7 19
9 3
6 15
8 17
11 15
15 16
8 16
9 3
7 10
14 18
8 12
10 5
15 12
14 5
10 4
15 5
12 4
10 19
13 12
11 12
6 3
6 7
15 9
14 12
9 16
8 15
7 19
14 5
6 5
13 12
13 3
12 10
9 8
14 14
12 5
9 16
9 12
14 6
13 12
9 13
10 12
15 7
6 9
13 20
14 10
8 6
12 10
13 12
9 5
15 9
8 11
9 16
6 3
14 8
13 14
9 4
9 4
8 7
9 4
14 11
13 14
12 9
15 12
7 14
5 8
8 10
13 15
14 11
7 17
8 5
5 8
10 6
5 13
15 8
10 19
8 7
6 8
12 15
6 17
15 16
11 17
6 13
14 13
15 17
14 16
12 15
8 9
10 17
5 18
15 20
14 12
6 5
9 13
8 12
14 15
6 8
6 10
12 10